num_plantas=1;
num_dias=2;
num_clientes=2;

coste_produccion = [5]; 
capacidad_maxima = [100]; 
demanda_diaria = [|
 80, 10| 
 20, 90|
|];

porcentaje_minimo = 50; 
pago_por_mw = [12, 10]; 

porcentaje_regimen_alto = [90]; 
max_dias_regimen_alto = [1]; 